								
[Terrain]	WorldIdx	Dis_Warp	WarpIdxForDead	WarpIdxForRetn	WarpIdxForLOut	DmgMin	DmgMax	WarControl
0	<null>	<null>	<null>	<null>	<null>	<null>	<null>	<null>
1	1	0	1	1	0	0	0	0
2	2	0	2	2	0	0	0	0
3	3	0	3	3	0	0	0	0
4	4	0	4	4	0	0	0	0
5	5	0	48	48	0	0	0	0
6	6	206	206	206	206	0	0	0
7	7	0	49	49	0	0	0	0
8	8	0	50	50	0	0	0	0
9	9	240	240	240	240	0	0	0
10	10	0	254	254	254	0	0	0
11	11	0	334	334	334	0	0	0
12	12	0	506	506	506	0	0	0
13	13	47	187	187	47	0	0	0
14	14	168	201	201	168	0	0	0
15	15	244	244	244	0	0	0	0
16	16	245	245	245	0	0	0	0
17	17	47	204	204	47	0	0	0
18	18	0	10	10	0	0	0	0
19	19	0	188	188	0	0	0	0
20	20	1	1	1	1	0	0	0
21	21	10	282	282	0	0	0	0
22	22	0	611	611	611	0	0	0
23	23	235	10	10	235	0	0	0
24	24	67	223	223	67	10	20	0
25	25	183	213	213	183	0	0	0
26	26	39	174	174	39	0	0	0
27	27	10	16	10	10	0	0	0
28	28	1	15	10	1	0	0	0
29	29	1	14	10	1	0	0	0
30	30	0	10	10	0	0	0	0
31	31	0	10	10	0	0	0	0
34	32	241	264	264	241	0	0	0
35	33	275	275	275	275	0	0	0
36	34	289	280	280	289	0	0	0
37	35	289	294	294	289	0	0	0
38	36	291	290	290	291	0	0	0
39	37	291	292	292	291	0	0	0
40	38	291	293	293	291	0	0	0
41	39	47	306	306	47	0	0	0
42	40	47	308	308	47	0	0	0
43	41	47	311	311	47	0	0	0
44	42	319	320	320	319	0	0	0
45	43	319	321	321	319	0	0	0
46	44	319	322	322	319	0	0	0
47	45	324	325	325	324	0	0	0
48	46	51	326	326	51	0	0	0
49	47	51	327	327	51	0	0	0
50	48	51	328	328	51	0	0	0
51	49	324	329	329	324	0	0	0
52	50	644	335	335	644	0	0	0
53	51	644	336	336	644	0	0	0
54	52	644	337	337	644	0	0	0
55	53	644	338	338	644	0	0	0
56	54	644	339	339	644	0	0	0
57	55	644	340	340	644	0	0	0
58	56	291	343	343	291	0	0	0
59	57	319	344	344	319	0	0	0
60	58	51	345	345	51	0	0	0
61	59	341	346	346	341	0	0	0
62	60	60	347	347	60	0	0	0
63	61	60	348	348	60	0	0	0
64	62	60	349	349	60	0	0	0
65	63	60	350	350	60	0	0	0
66	64	1	353	353	1	0	0	0
67	65	1	353	353	1	0	0	0
68	66	48	378	48	48	0	0	0
69	67	2	2	2	2	0	0	0
70	68	446	447	447	446	0	0	0
71	69	1	1	1	1	0	0	0
72	70	3	3	3	3	0	0	0
73	71	4	4	4	4	0	0	0
74	72	489	489	489	1	0	0	0
75	73	206	206	206	206	0	0	0
76	74	501	502	502	501	0	0	0
77	75	501	503	503	501	0	0	0
78	76	501	504	504	501	0	0	0
79	77	341	505	505	341	0	0	0
80	78	1	510	510	1	0	0	0
81	79	1	510	510	1	0	0	0
82	80	1	510	510	1	0	0	0
83	81	1	510	510	1	0	0	0
84	82	1	510	510	1	0	0	0
85	83	1	510	510	1	0	0	0
86	84	1	510	510	1	0	0	0
87	85	1	510	510	1	0	0	0
88	86	1	510	510	1	0	0	0
89	87	1	510	510	1	0	0	0
90	88	185	520	520	185	0	0	0
91	89	241	264	264	241	0	0	0
92	90	275	275	275	275	0	0	0
93	91	1	541	541	1	0	0	0
94	92	1	542	542	1	0	0	0
95	93	1	543	543	1	0	0	0
96	94	1	544	544	1	0	0	0
97	95	1	545	545	1	0	0	0
98	96	1	546	546	1	0	0	0
99	97	1	547	547	1	0	0	0
100	98	1	548	548	1	0	0	0
101	99	1	549	549	1	0	0	0
102	100	1	550	550	1	0	0	0
103	101	341	551	551	341	0	0	0
104	102	60	552	552	60	0	0	0
105	103	291	553	553	291	0	0	0
106	104	319	554	554	319	0	0	0
107	105	51	556	556	51	0	0	0
108	106	501	559	559	501	0	0	0
109	107	561	560	560	561	0	0	0
110	108	1	17	10	1	0	0	0
111	109	583	583	583	0	0	0	0
112	110	584	584	584	0	0	0	0
113	111	592	592	592	1	0	0	0
114	112	593	593	593	1	0	0	0
115	113	594	594	594	1	0	0	0
116	114	595	595	595	1	0	0	0
117	115	596	596	596	1	0	0	0
118	116	597	597	597	1	0	0	0
119	117	598	598	598	1	0	0	0
120	118	599	599	599	1	0	0	0
121	119	600	600	600	1	0	0	0
122	120	601	601	601	1	0	0	0
123	121	185	604	604	185	0	0	0
124	122	617	618	618	617	0	0	0
125	123	341	620	620	341	0	0	0
126	124	324	621	621	324	0	0	0
127	125	324	622	622	324	0	0	0
128	126	627	626	626	627	0	0	0
129	127	235	625	625	235	0	0	0
130	128	341	632	632	341	0	0	0
131	129	634	633	633	634	0	0	0
132	130	634	638	638	634	0	0	0
133	131	634	642	642	634	0	0	0
134	132	275	645	645	275	0	0	0
135	133	644	648	648	644	0	0	0
136	134	0	649	649	0	0	0	0
137	135	650	651	651	650	0	0	0
138	136	60	653	653	60	0	0	0
139	137	655	654	654	655	0	0	0
140	138	675	663	663	675	0	0	0
141	139	291	676	676	291	0	0	0
142	140	677	678	678	677	0	0	0
143	141	677	679	679	677	0	0	0
144	142	677	680	680	677	0	0	0
145	143	677	681	681	677	0	0	0
146	144	677	682	682	677	0	0	0
147	145	677	683	683	677	0	0	0
148	146	677	684	684	677	0	0	0
149	147	677	685	685	677	0	0	0
150	148	51	686	686	51	0	0	0
151	149	655	688	688	655	0	0	0
152	150	185	692	692	185	0	0	0
153	151	185	695	695	185	0	0	0
154	152	278	698	698	278	0	0	0
155	153	677	703	703	677	0	0	0
156	154	319	704	704	319	0	0	0
157	155	706	705	705	706	0	0	0
158	156	39	712	712	39	0	0	0
159	157	446	715	715	446	0	0	0
160	158	724	724	724	0	0	0	0
161	159	725	725	725	0	0	0	0
162	160	728	726	726	728	0	0	0

[ARENA]	QD_ID	MAX_Level	Group
0	297	60	1
1	298	80	1
2	299	94	1
3	300	124	1
4	301	180	1

[Dungeon_MaxLevel]	Dungeon_ID	Max_Level
0	302	200
1	303	200
2	304	200
3	4111	200
4	4112	200
5	4113	200
6	4114	200
7	4115	200
8	4116	200
9	4251	200
10	4348	200
